1367
680
1372
1432
865
785
997
70
1397
572
1339
8
53
124
779
687
1063
1254
489
27
308
202
277
196
631
671
93
1479
1088
1260
1016
573
1422
1385
222
631
384
357
853
1118
367
505
740
889
329
1469
942
885
644
341
970
189
262
731
176
1366
567
1223
110
352
135
459
1236
1418
1238
41
1400
830
1094
1193
1334
192
968
1291
1351
1021
1249
33
689
471
618
384
247
1043
309
213
884
178
1142
238
261
836
1118
562
1342
1138
1427
577
46
229
